Version identifier: 22.1.0.0 | 2022-03-09 | 1a383f8ce
CPXPARAM_Read_DataCheck                          1
CPXPARAM_TimeLimit                               600
Tried aggregator 4 times.
MIP Presolve eliminated 147180 rows and 12079 columns.
MIP Presolve modified 1496 coefficients.
Aggregator did 138173 substitutions.
Reduced MIP has 12593 rows, 140280 columns, and 293441 nonzeros.
Reduced MIP has 140236 binaries, 44 generals, 0 SOSs, and 0 indicators.
Presolve time = 2.11 sec. (2125.37 ticks)
Tried aggregator 1 time.
Detecting symmetries...
Reduced MIP has 12593 rows, 140280 columns, and 293441 nonzeros.
Reduced MIP has 140236 binaries, 44 generals, 0 SOSs, and 0 indicators.
Presolve time = 0.40 sec. (236.20 ticks)
Probing fixed 66 vars, tightened 0 bounds.
Probing time = 0.86 sec. (76.31 ticks)
Clique table members: 283349.
MIP emphasis: balance optimality and feasibility.
MIP search method: dynamic search.
Parallel mode: deterministic, using up to 8 threads.
Root relaxation solution time = 2.82 sec. (1096.48 ticks)

        Nodes                                         Cuts/
   Node  Left     Objective  IInf  Best Integer    Best Bound    ItCnt     Gap

      0     0       44.3951  9154                     44.3951       29         
      0     0       71.0000  1068                    Cuts: 36    23538         
      0     0       71.0000  1188                    Cuts: 67    41767         
      0     0       71.0000  1157                ZeroHalf: 71    59390         
      0     0       71.0000   935                ZeroHalf: 62    78805         
      0     0       71.0000  1241                    Cuts: 66    98051         

Zero-half cuts applied:  131
Lift and project cuts applied:  4
Gomory fractional cuts applied:  27

Root node processing (before b&c):
  Real time             =  600.06 sec. (280218.34 ticks)
Parallel b&c, 8 threads:
  Real time             =    0.00 sec. (0.00 ticks)
  Sync time (average)   =    0.00 sec.
  Wait time (average)   =    0.00 sec.
                          ------------
Total (root+branch&cut) =  600.06 sec. (280218.34 ticks)
